Geographic Exponential Decay
20 155 261 179 210 251 33 292 84 151 48 265 8 35 100 260 17 245 282 188 273
p edge 320 319
e 0 27 1.0
e 1 88 1.0
e 1 0 2.0
e 2 107 3.0
e 2 1 1.0
e 3 30 8.0
e 3 2 3.0
e 4 246 2.0
e 4 3 1.0
e 5 114 3.0
e 5 4 1.0
e 6 51 1.0
e 6 5 2.0
e 7 37 12.0
e 7 6 1.0
e 8 267 50.0
e 8 260 94.0
e 8 195 58.0
e 8 245 94.0
e 8 91 61.0
e 9 285 22.0
e 9 7 1.0
e 10 261 20.0
e 11 314 16.0
e 11 217 1.0
e 11 9 4.0
e 12 178 1.0
e 12 11 10.0
e 13 39 5.0
e 13 12 1.0
e 14 101 17.0
e 15 23 21.0
e 15 310 11.0
e 15 13 10.0
e 16 215 11.0
e 16 17 24.0
e 17 59 65.0
e 17 25 66.0
e 17 18 43.0
e 17 282 93.0
e 19 20 2.0
e 19 15 21.0
e 21 115 11.0
e 21 19 6.0
e 22 156 12.0
e 22 62 4.0
e 22 21 8.0
e 24 94 2.0
e 24 22 5.0
e 26 140 2.0
e 26 24 1.0
e 28 295 2.0
e 28 26 1.0
e 29 141 5.0
e 29 28 2.0
e 30 244 6.0
e 31 146 1.0
e 31 29 1.0
e 32 48 68.0
e 32 31 2.0
e 33 70 66.0
e 33 122 99.0
e 33 99 9.0
e 33 46 70.0
e 33 34 42.0
e 33 32 91.0
e 35 300 7.0
e 35 40 52.0
e 35 103 28.0
e 35 36 9.0
e 35 102 81.0
e 35 33 57.0
e 37 245 27.0
e 38 193 2.0
e 38 35 84.0
e 41 133 5.0
e 41 38 1.0
e 42 239 3.0
e 42 95 19.0
e 42 41 20.0
e 43 155 14.0
e 43 42 23.0
e 44 45 1.0
e 44 43 6.0
e 47 157 6.0
e 47 44 1.0
e 48 82 12.0
e 48 283 31.0
e 48 108 52.0
e 48 123 27.0
e 49 275 2.0
e 49 47 8.0
e 50 158 1.0
e 50 49 2.0
e 52 53 13.0
e 52 120 12.0
e 52 50 24.0
e 54 177 4.0
e 54 52 13.0
e 55 137 2.0
e 55 54 1.0
e 56 196 3.0
e 56 55 1.0
e 57 258 2.0
e 57 56 5.0
e 58 198 5.0
e 58 57 1.0
e 60 248 12.0
e 60 58 4.0
e 61 212 1.0
e 61 60 10.0
e 63 127 1.0
e 63 61 2.0
e 64 139 2.0
e 64 63 2.0
e 65 144 2.0
e 65 64 1.0
e 66 117 2.0
e 66 65 2.0
e 67 159 4.0
e 67 66 1.0
e 68 289 9.0
e 68 311 18.0
e 68 67 2.0
e 69 71 48.0
e 69 130 49.0
e 69 72 35.0
e 69 68 9.0
e 73 93 2.0
e 73 69 22.0
e 74 119 12.0
e 74 278 2.0
e 74 73 22.0
e 75 160 2.0
e 75 74 20.0
e 76 317 7.0
e 76 75 5.0
e 77 250 6.0
e 77 76 8.0
e 78 149 2.0
e 78 77 5.0
e 79 80 4.0
e 79 78 3.0
e 81 83 13.0
e 81 84 7.0
e 81 79 18.0
e 84 308 71.0
e 84 85 44.0
e 84 191 15.0
e 84 213 79.0
e 86 165 9.0
e 86 81 9.0
e 87 109 24.0
e 87 86 1.0
e 89 181 7.0
e 89 87 8.0
e 90 304 1.0
e 90 89 10.0
e 92 266 2.0
e 92 90 2.0
e 96 221 2.0
e 96 92 3.0
e 97 249 1.0
e 98 100 13.0
e 100 101 7.0
e 100 316 96.0
e 100 197 37.0
e 100 231 67.0
e 104 150 6.0
e 104 96 5.0
e 105 214 1.0
e 105 104 2.0
e 106 109 24.0
e 110 111 23.0
e 110 135 25.0
e 110 105 24.0
e 112 238 1.0
e 112 110 17.0
e 113 116 45.0
e 113 142 3.0
e 113 254 36.0
e 113 112 46.0
e 116 294 16.0
e 118 202 1.0
e 118 113 34.0
e 121 247 5.0
e 121 118 3.0
e 124 128 1.0
e 124 121 5.0
e 125 281 1.0
e 125 124 3.0
e 126 129 12.0
e 126 125 4.0
e 131 240 3.0
e 131 126 5.0
e 132 134 1.0
e 132 131 4.0
e 136 228 1.0
e 136 132 1.0
e 138 143 9.0
e 138 136 1.0
e 145 147 2.0
e 145 138 1.0
e 148 151 56.0
e 148 152 11.0
e 151 153 44.0
e 151 154 65.0
e 151 155 9.0
e 151 255 86.0
e 155 179 20.0
e 155 187 20.0
e 155 166 87.0
e 161 162 13.0
e 161 145 3.0
e 162 163 9.0
e 164 167 1.0
e 164 161 2.0
e 167 168 12.0
e 169 170 2.0
e 169 164 5.0
e 171 172 20.0
e 171 169 3.0
e 172 173 1.0
e 174 175 4.0
e 174 171 7.0
e 176 179 39.0
e 179 242 78.0
e 179 180 80.0
e 179 182 23.0
e 183 211 12.0
e 183 174 5.0
e 184 185 2.0
e 184 183 5.0
e 186 224 1.0
e 186 184 2.0
e 188 189 45.0
e 188 190 15.0
e 188 192 13.0
e 188 282 5.0
e 188 194 63.0
e 194 197 7.0
e 199 225 17.0
e 199 186 2.0
e 200 201 13.0
e 200 203 19.0
e 200 199 14.0
e 201 293 21.0
e 204 205 1.0
e 204 200 16.0
e 206 207 5.0
e 206 204 2.0
e 208 234 1.0
e 208 206 1.0
e 209 210 93.0
e 210 216 40.0
e 210 218 48.0
e 210 286 39.0
e 210 256 80.0
e 216 219 9.0
e 220 222 20.0
e 220 208 2.0
e 222 232 2.0
e 223 296 1.0
e 223 220 3.0
e 225 226 1.0
e 227 269 8.0
e 227 223 11.0
e 229 230 2.0
e 229 227 12.0
e 233 318 9.0
e 233 229 10.0
e 235 305 1.0
e 235 233 11.0
e 236 306 5.0
e 236 235 1.0
e 237 241 7.0
e 237 236 2.0
e 243 245 60.0
e 245 249 35.0
e 245 251 87.0
e 251 252 23.0
e 251 253 51.0
e 251 257 31.0
e 251 259 48.0
e 260 261 59.0
e 260 262 19.0
e 260 315 3.0
e 260 277 15.0
e 261 263 69.0
e 261 319 4.0
e 261 264 58.0
e 265 268 66.0
e 265 270 38.0
e 265 271 49.0
e 265 272 90.0
e 265 284 99.0
e 265 237 74.0
e 272 273 72.0
e 273 274 84.0
e 273 276 7.0
e 273 279 75.0
e 273 290 70.0
e 280 282 49.0
e 280 285 18.0
e 282 286 20.0
e 282 287 100.0
e 288 291 1.0
e 288 265 19.0
e 292 297 42.0
e 292 298 51.0
e 292 299 7.0
e 292 301 76.0
e 292 302 50.0
e 292 288 70.0
e 303 307 3.0
e 303 292 45.0
e 309 312 1.0
e 309 303 1.0
e 313 309 10.0
